c preprocessed version of 1rro_graph, 107 vertices, 1300 edges
p td 107 1300
105 106
104 106
104 105
103 106
103 105
103 104
102 106
102 105
102 104
102 103
101 105
101 104
101 103
101 102
100 105
100 104
100 103
100 102
100 101
99 104
99 103
99 102
99 101
99 100
98 105
98 102
98 101
98 100
98 99
97 104
97 101
97 100
97 99
97 98
96 102
96 101
96 100
96 99
96 98
96 97
95 104
95 103
95 102
95 100
95 99
95 97
95 96
94 100
94 99
94 97
94 96
94 95
93 96
93 95
93 94
92 99
92 98
92 96
92 95
92 94
92 93
91 99
91 96
91 93
91 92
90 102
90 99
90 98
90 96
90 95
90 94
90 93
90 92
90 91
89 106
89 103
89 102
89 99
89 98
89 96
89 95
89 92
89 91
89 90
88 103
88 100
88 99
88 96
88 95
88 94
88 93
88 92
88 91
88 90
88 89
87 106
87 104
87 103
87 102
87 101
87 100
87 99
87 97
87 96
87 95
87 94
87 89
87 88
86 106
86 104
86 103
86 102
86 100
86 95
86 89
86 88
86 87
85 106
85 103
85 95
85 93
85 91
85 89
85 88
85 87
85 86
84 103
84 100
84 95
84 94
84 93
84 92
84 91
84 88
84 87
84 86
84 85
83 104
83 103
83 100
83 99
83 95
83 94
83 93
83 88
83 87
83 86
83 85
83 84
82 106
82 103
82 95
82 87
82 86
82 85
82 84
82 83
81 93
81 88
81 86
81 85
81 84
81 83
81 82
80 100
80 95
80 94
80 93
80 88
80 87
80 85
80 84
80 83
80 82
80 81
79 103
79 95
79 87
79 86
79 84
79 83
79 82
79 81
79 80
78 85
78 82
78 81
78 80
78 79
77 93
77 84
77 81
77 80
77 79
77 78
76 83
76 82
76 81
76 80
76 79
76 78
76 77
75 103
75 100
75 95
75 87
75 86
75 84
75 83
75 82
75 80
75 79
75 78
75 77
75 76
74 80
74 79
74 77
74 76
74 75
73 79
73 76
73 75
73 74
72 83
72 79
72 75
72 74
72 73
71 74
71 73
71 72
70 74
70 72
70 71
69 73
69 72
69 71
69 70
68 104
68 100
68 83
68 79
68 75
68 72
68 70
68 69
67 75
67 74
67 72
67 70
67 69
67 68
66 75
66 74
66 73
66 72
66 71
66 70
66 69
66 68
66 67
65 104
65 83
65 80
65 79
65 76
65 75
65 74
65 73
65 72
65 71
65 69
65 68
65 67
65 66
64 104
64 103
64 100
64 95
64 88
64 87
64 86
64 84
64 83
64 82
64 80
64 79
64 75
64 74
64 73
64 72
64 68
64 67
64 66
64 65
63 83
63 80
63 79
63 75
63 74
63 73
63 72
63 70
63 67
63 66
63 65
63 64
62 84
62 83
62 81
62 80
62 79
62 77
62 76
62 75
62 74
62 67
62 66
62 65
62 64
62 63
61 104
61 103
61 100
61 95
61 94
61 93
61 88
61 87
61 86
61 85
61 84
61 83
61 82
61 81
61 80
61 79
61 77
61 75
61 68
61 65
61 64
61 63
61 62
60 104
60 103
60 100
60 95
60 94
60 87
60 84
60 83
60 80
60 75
60 68
60 67
60 64
60 63
60 62
60 61
59 80
59 77
59 74
59 70
59 67
59 66
59 63
59 62
59 61
59 60
58 94
58 93
58 84
58 80
58 62
58 61
58 60
58 59
57 96
57 95
57 94
57 93
57 92
57 88
57 84
57 83
57 80
57 61
57 60
57 59
57 58
56 104
56 103
56 100
56 99
56 97
56 96
56 95
56 94
56 88
56 87
56 86
56 84
56 83
56 80
56 79
56 75
56 68
56 67
56 65
56 64
56 63
56 61
56 60
56 59
56 58
56 57
55 100
55 99
55 98
55 97
55 96
55 95
55 94
55 93
55 92
55 90
55 88
55 87
55 84
55 61
55 60
55 58
55 57
55 56
54 100
54 98
54 97
54 96
54 94
54 92
54 57
54 56
54 55
53 96
53 94
53 92
53 60
53 59
53 58
53 57
53 56
53 55
53 54
52 97
52 60
52 54
52 53
51 94
51 67
51 63
51 60
51 59
51 58
51 57
51 56
51 55
51 54
51 53
51 52
50 74
50 70
50 67
50 66
50 64
50 63
50 62
50 60
50 59
50 58
50 57
50 56
50 53
50 52
50 51
49 104
49 100
49 97
49 96
49 95
49 94
49 87
49 83
49 67
49 64
49 61
49 60
49 57
49 56
49 55
49 54
49 53
49 52
49 51
49 50
48 104
48 103
48 100
48 97
48 95
48 87
48 84
48 83
48 80
48 79
48 75
48 72
48 68
48 67
48 66
48 65
48 64
48 63
48 61
48 60
48 57
48 56
48 50
48 49
47 100
47 70
47 68
47 67
47 64
47 56
47 52
47 50
47 49
47 48
46 100
46 97
46 56
46 54
46 52
46 50
46 49
46 48
46 47
45 105
45 104
45 103
45 101
45 100
45 99
45 98
45 97
45 96
45 95
45 94
45 87
45 86
45 83
45 68
45 64
45 61
45 60
45 56
45 55
45 54
45 53
45 52
45 49
45 48
45 47
45 46
44 104
44 103
44 101
44 100
44 97
44 95
44 87
44 83
44 68
44 67
44 65
44 64
44 61
44 60
44 56
44 49
44 48
44 47
44 46
44 45
43 97
43 47
43 46
43 45
43 44
42 105
42 104
42 101
42 100
42 98
42 97
42 96
42 95
42 56
42 54
42 52
42 49
42 47
42 46
42 45
42 44
42 43
41 105
41 104
41 103
41 102
41 101
41 100
41 98
41 97
41 95
41 87
41 86
41 83
41 68
41 64
41 56
41 49
41 48
41 45
41 44
41 43
41 42
40 105
40 104
40 47
40 44
40 43
40 42
40 41
39 101
39 97
39 46
39 44
39 43
39 42
39 41
39 40
38 105
38 104
38 102
38 101
38 100
38 98
38 97
38 45
38 42
38 41
38 40
38 39
37 105
37 104
37 101
37 44
37 43
37 42
37 41
37 40
37 39
37 38
36 105
36 104
36 101
36 100
36 68
36 48
36 45
36 44
36 43
36 41
36 40
36 39
36 38
36 37
35 105
35 104
35 41
35 40
35 37
35 36
34 106
34 105
34 104
34 103
34 87
34 86
34 44
34 41
34 36
34 35
33 105
33 104
33 103
33 101
33 100
33 95
33 87
33 86
33 83
33 72
33 68
33 67
33 65
33 64
33 56
33 49
33 48
33 47
33 45
33 44
33 43
33 42
33 41
33 40
33 38
33 37
33 36
33 35
33 34
32 44
32 40
32 36
32 35
32 34
32 33
31 104
31 103
31 100
31 83
31 79
31 75
31 72
31 69
31 68
31 67
31 65
31 64
31 48
31 47
31 45
31 44
31 41
31 40
31 36
31 35
31 34
31 33
31 32
30 68
30 65
30 35
30 34
30 33
30 32
30 31
29 106
29 105
29 104
29 86
29 35
29 34
29 33
29 32
29 31
29 30
28 106
28 105
28 104
28 103
28 100
28 95
28 87
28 86
28 83
28 79
28 75
28 68
28 65
28 64
28 61
28 56
28 48
28 45
28 44
28 41
28 36
28 35
28 34
28 33
28 32
28 31
28 30
28 29
27 104
27 103
27 100
27 95
27 87
27 86
27 83
27 82
27 79
27 75
27 72
27 69
27 68
27 67
27 65
27 64
27 61
27 56
27 48
27 45
27 44
27 41
27 36
27 34
27 33
27 31
27 30
27 29
27 28
26 86
26 83
26 82
26 79
26 34
26 31
26 30
26 29
26 28
26 27
25 106
25 104
25 103
25 102
25 87
25 86
25 83
25 82
25 35
25 34
25 30
25 29
25 28
25 27
25 26
24 106
24 104
24 103
24 102
24 100
24 99
24 95
24 88
24 87
24 86
24 85
24 84
24 83
24 82
24 80
24 79
24 75
24 68
24 65
24 64
24 61
24 60
24 56
24 48
24 45
24 44
24 41
24 34
24 33
24 31
24 29
24 28
24 27
24 26
24 25
23 106
23 103
23 86
23 85
23 83
23 82
23 79
23 78
23 75
23 65
23 30
23 29
23 28
23 27
23 26
23 25
23 24
22 104
22 103
22 95
22 87
22 86
22 83
22 82
22 80
22 79
22 78
22 76
22 75
22 74
22 73
22 72
22 68
22 66
22 65
22 64
22 62
22 61
22 56
22 48
22 33
22 31
22 30
22 28
22 27
22 26
22 25
22 24
22 23
21 82
21 79
21 76
21 75
21 73
21 65
21 26
21 23
21 22
20 82
20 81
20 79
20 78
20 77
20 76
20 75
20 73
20 23
20 22
20 21
19 82
19 79
19 78
19 77
19 76
19 75
19 74
19 73
19 65
19 62
19 22
19 21
19 20
18 79
18 76
18 73
18 26
18 22
18 21
18 20
18 19
17 73
17 72
17 71
17 69
17 65
17 22
17 21
17 19
17 18
16 65
16 31
16 30
16 29
16 27
16 26
16 25
16 23
16 22
16 21
16 18
16 17
15 72
15 71
15 69
15 65
15 30
15 26
15 21
15 18
15 17
15 16
14 79
14 75
14 73
14 72
14 71
14 70
14 69
14 68
14 67
14 66
14 65
14 64
14 48
14 44
14 33
14 31
14 30
14 27
14 22
14 17
14 16
14 15
13 104
13 103
13 83
13 79
13 75
13 72
13 69
13 68
13 67
13 65
13 64
13 48
13 44
13 41
13 33
13 32
13 31
13 30
13 29
13 28
13 27
13 26
13 24
13 22
13 16
13 15
13 14
12 32
12 31
12 30
12 29
12 26
12 17
12 16
12 15
12 14
12 13
11 72
11 71
11 69
11 68
11 65
11 31
11 30
11 17
11 16
11 15
11 14
11 13
11 12
10 104
10 75
10 72
10 71
10 70
10 69
10 68
10 67
10 65
10 64
10 48
10 47
10 44
10 41
10 40
10 36
10 33
10 32
10 31
10 30
10 28
10 27
10 22
10 15
10 14
10 13
10 12
10 11
9 68
9 44
9 40
9 36
9 35
9 33
9 32
9 31
9 30
9 29
9 27
9 16
9 13
9 12
9 11
9 10
8 69
8 32
8 30
8 15
8 13
8 12
8 11
8 10
8 9
7 72
7 71
7 70
7 69
7 68
7 31
7 15
7 14
7 12
7 11
7 10
7 9
7 8
6 68
6 40
6 36
6 35
6 33
6 32
6 31
6 12
6 11
6 10
6 9
6 8
6 7
5 104
5 100
5 72
5 69
5 68
5 67
5 65
5 64
5 48
5 47
5 45
5 44
5 43
5 41
5 40
5 37
5 36
5 35
5 34
5 33
5 32
5 31
5 28
5 27
5 14
5 13
5 11
5 10
5 9
5 7
5 6
4 104
4 100
4 68
4 48
4 47
4 46
4 44
4 43
4 41
4 40
4 39
4 37
4 36
4 33
4 32
4 31
4 28
4 10
4 9
4 6
4 5
3 47
3 44
3 43
3 40
3 39
3 36
3 7
3 5
3 4
2 70
2 69
2 68
2 67
2 47
2 44
2 43
2 31
2 14
2 11
2 10
2 8
2 7
2 6
2 5
2 4
2 3
1 104
1 100
1 72
1 70
1 69
1 68
1 67
1 65
1 64
1 63
1 56
1 50
1 48
1 47
1 46
1 45
1 44
1 43
1 41
1 40
1 36
1 33
1 32
1 31
1 28
1 27
1 14
1 13
1 10
1 9
1 7
1 6
1 5
1 4
1 3
1 2
0 70
0 68
0 67
0 50
0 48
0 47
0 46
0 44
0 43
0 10
0 7
0 5
0 4
0 3
0 2
0 1
